problem_generation/data/GISP/train/er_n=64_m=1214_p=0.60_SET2_setparam=100.00_alpha=0.50_431.lp
maximize
OBJ:100x0 + 100x1 + 100x2 + 100x3 + 100x4 + 100x5 + 100x6 + 100x7 + 100x8 + 100x9 + 100x10 + 100x11 + 100x12 + 100x13 + 100x14 + 100x15 + 100x16 + 100x17 + 100x18 + 100x19 + 100x20 + 100x21 + 100x22 + 100x23 + 100x24 + 100x25 + 100x26 + 100x27 + 100x28 + 100x29 + 100x30 + 100x31 + 100x32 + 100x33 + 100x34 + 100x35 + 100x36 + 100x37 + 100x38 + 100x39 + 100x40 + 100x41 + 100x42 + 100x43 + 100x44 + 100x45 + 100x46 + 100x47 + 100x48 + 100x49 + 100x50 + 100x51 + 100x52 + 100x53 + 100x54 + 100x55 + 100x56 + 100x57 + 100x58 + 100x59 + 100x60 + 100x61 + 100x62 + 100x63 - y36_53 - y15_30 - y15_39 - y28_58 - y29_32 - y40_41 - y11_14 - y29_50 - y40_50 - y21_46 - y48_63 - y0_23 - y41_42 - y33_38 - y25_34 - y2_41 - y3_6 - y33_56 - y2_59 - y32_60 - y14_33 - y3_42 - y15_16 - y7_12 - y47_48 - y15_25 - y55_61 - y18_21 - y47_57 - y17_53 - y17_62 - y28_62 - y29_36 - y0_9 - y40_45 - y48_58 - y29_63 - y40_63 - y2_27 - y25_29 - y10_40 - y25_47 - y51_59 - y32_55 - y43_55 - y22_32 - y13_51 - y35_60 - y3_37 - y16_56 - y36_43 - y55_56 - y17_39 - y7_16 - y47_52 - y36_61 - y9_53 - y6_29 - y29_31 - y9_62 - y21_27 - y21_36 - y29_49 - y21_54 - y33_37 - y10_44 - y51_63 - y35_46 - y3_23 - y32_59 - y43_59 - y13_55 - y24_55 - y14_32 - y16_51 - y1_62 - y17_25 - y36_38 - y5_41 - y9_39 - y28_52 - y9_48 - y17_61 - y28_61 - y58_62 - y21_31 - y6_42 - y29_44 - y21_40 - y21_49 - y10_12 - y10_30 - y20_62 - y10_39 - y23_58 - y2_35 - y4_63 - y51_58 - y35_41 - y14_18 - y13_50 - y32_63 - y43_63 - y1_57 - y13_59 - y36_42 - y9_25 - y5_45 - y9_43 - y17_56 - y5_63 - y61_62 - y6_37 - y42_58 - y20_39 - y39_52 - y62_63 - y2_21 - y20_57 - y54_59 - y3_4 - y1_34 - y35_36 - y1_43 - y13_45 - y32_58 - y35_45 - y13_54 - y24_63 - y9_11 - y5_31 - y5_40 - y5_58 - y6_23 - y8_51 - y19_60 - y42_62 - y2_7 - y12_39 - y2_16 - y20_52 - y54_63 - y1_29 - y13_31 - y24_31 - y1_38 - y13_40 - y1_47 - y16_45 - y1_56 - y46_55 - y9_15 - y38_51 - y38_60 - y17_37 - y28_37 - y5_44 - y27_41 - y6_18 - y19_55 - y23_25 - y20_38 - y12_34 - y23_34 - y31_47 - y20_56 - y13_17 - y4_48 - y1_24 - y24_26 - y4_57 - y16_22 - y13_44 - y24_44 - y46_50 - y38_46 - y57_59 - y38_55 - y5_30 - y26_62 - y7_58 - y6_13 - y42_43 - y0_37 - y11_37 - y42_52 - y11_46 - y30_59 - y11_55 - y12_20 - y31_33 - y39_46 - y23_29 - y23_47 - y4_43 - y13_21 - y4_52 - y34_53 - y4_61 - y34_62 - y56_62 - y1_37 - y15_48 - y7_62 - y8_27 - y27_40 - y30_36 - y27_49 - y27_58 - y0_50 - y30_63 - y12_42 - y34_39 - y1_14 - y4_47 - y56_57 - y1_32 - y37_53 - y16_30 - y15_34 - y26_34 - y5_11 - y46_49 - y46_58 - y15_52 - y26_52 - y38_54 - y7_48 - y26_61 - y49_63 - y18_57 - y19_31 - y11_27 - y8_40 - y30_40 - y0_36 - y11_45 - y30_58 - y20_23 - y41_55 - y52_55 - y31_32 - y12_28 - y23_28 - y4_24 - y44_60 - y4_33 - y1_9 - y1_18 - y53_56 - y34_52 - y37_48 - y37_57 - y15_29 - y5_6 - y26_38 - y38_49 - y7_52 - y27_30 - y0_13 - y18_61 - y48_62 - y27_39 - y29_58 - y8_35 - y30_44 - y12_14 - y41_50 - y4_10 - y10_62 - y1_4 - y25_60 - y34_38 - y22_45 - y34_56 - y3_50 - y22_63 - y37_61 - y15_33 - y15_42 - y26_42 - y7_47 - y8_12 - y18_47 - y0_8 - y29_53 - y11_26 - y41_45 - y52_54 - y25_37 - y4_14 - y33_50 - y41_63 - y52_63 - y44_59 - y2_53 - y22_31 - y14_27 - y37_47 - y22_58 - y14_54 - y7_15 - y18_33 - y29_39 - y48_52 - y40_57 - y21_53 - y11_30 - y21_62 - y41_58 - y2_48 - y14_22 - y3_31 - y3_40 - y22_53 - y3_49 - y15_23 - y15_32 - y26_32 - y17_60 - y7_37 - y29_34 - y6_41 - y40_43 - y21_39 - y11_16 - y29_61 - y10_29 - y2_25 - y2_34 - y25_36 - y10_47 - y33_49 - y44_49 - y2_43 - y3_8 - y2_52 - y3_17 - y22_30 - y14_26 - y13_58 - y24_58 - y3_44 - y7_14 - y17_46 - y18_23 - y6_45 - y29_56 - y6_63 - y21_61 - y10_51 - y43_48 - y35_53 - y24_62 - y35_62 - y17_32 - y7_9 - y36_54 - y47_63 - y9_55 - y21_38 - y40_51 - y20_60 - y25_26 - y31_60 - y25_35 - y3_16 - y14_16 - y32_52 - y24_48 - y35_48 - y3_25 - y32_61 - y43_52 - y24_57 - y35_57 - y17_27 - y17_36 - y28_36 - y5_43 - y6_8 - y17_45 - y36_58 - y9_50 - y9_59 - y50_60 - y10_14 - y39_50 - y20_46 - y31_46 - y13_25 - y2_37 - y13_34 - y24_34 - y24_43 - y32_56 - y24_52 - y16_48 - y1_59 - y16_57 - y17_31 - y36_44 - y5_38 - y17_40 - y28_40 - y28_49 - y9_45 - y58_59 - y50_55 - y42_51 - y27_62 - y6_39 - y2_5 - y20_41 - y10_18 - y39_54 - y2_14 - y31_50 - y39_63 - y20_59 - y32_42 - y16_25 - y1_36 - y32_51 - y1_45 - y13_56 - y24_56 - y5_15 - y1_63 - y9_13 - y16_61 - y49_58 - y6_7 - y9_40 - y5_51 - y50_59 - y8_53 - y19_53 - y31_36 - y20_45 - y31_45 - y2_18 - y31_63 - y4_46 - y4_55 - y1_31 - y1_40 - y35_51 - y38_44 - y5_19 - y46_57 - y49_53 - y5_28 - y17_30 - y9_26 - y15_60 - y8_39 - y30_39 - y19_48 - y0_44 - y19_57 - y20_22 - y30_57 - y20_31 - y0_62 - y11_62 - y23_27 - y39_53 - y20_49 - y1_8 - y12_54 - y1_17 - y23_54 - y45_60 - y13_37 - y16_33 - y1_44 - y5_14 - y9_12 - y38_48 - y46_61 - y57_61 - y15_55 - y49_57 - y7_51 - y30_34 - y30_43 - y42_45 - y8_52 - y19_52 - y30_61 - y0_57 - y12_22 - y20_44 - y4_36 - y45_46 - y4_54 - y34_55 - y3_58 - y46_47 - y5_18 - y9_16 - y26_50 - y15_59 - y19_20 - y27_33 - y8_29 - y19_29 - y11_25 - y11_34 - y8_47 - y0_43 - y11_43 - y19_56 - y4_13 - y12_26 - y23_26 - y4_22 - y33_58 - y12_35 - y23_44 - y1_25 - y26_27 - y26_36 - y46_51 - y18_41 - y49_56 - y7_59 - y27_37 - y8_42 - y19_42 - y11_38 - y30_51 - y20_25 - y4_8 - y44_53 - y25_49 - y33_62 - y22_34 - y34_36 - y22_43 - y3_39 - y37_41 - y22_52 - y14_48 - y22_61 - y56_63 - y3_57 - y14_57 - y37_59 - y15_40 - y18_36 - y7_45 - y8_19 - y8_28 - y19_28 - y11_24 - y29_60 - y8_37 - y40_60 - y11_33 - y41_43 - y33_39 - y12_16 - y41_52 - y33_57 - y2_51 - y25_53 - y2_60 - y22_38 - y34_40 - y3_34 - y14_43 - y56_58 - y37_54 - y15_17 - y14_61 - y55_62 - y26_35 - y26_44 - y7_49 - y0_10 - y48_59 - y0_19 - y40_55 - y30_32 - y21_60 - y41_47 - y33_43 - y41_56 - y2_46 - y3_29
 Subject to
C1: x0+x5 <=1 
C2: x0+x6 <=1 
C3: x0+x7 <=1 
C4: x0+x8-y0_8 <=1 
C5: x0+x9-y0_9 <=1 
C6: x0+x10-y0_10 <=1 
C7: x0+x11 <=1 
C8: x0+x13-y0_13 <=1 
C9: x0+x18 <=1 
C10: x0+x19-y0_19 <=1 
C11: x0+x22 <=1 
C12: x0+x23-y0_23 <=1 
C13: x0+x28 <=1 
C14: x0+x29 <=1 
C15: x0+x32 <=1 
C16: x0+x34 <=1 
C17: x0+x36-y0_36 <=1 
C18: x0+x37-y0_37 <=1 
C19: x0+x38 <=1 
C20: x0+x40 <=1 
C21: x0+x43-y0_43 <=1 
C22: x0+x44-y0_44 <=1 
C23: x0+x45 <=1 
C24: x0+x46 <=1 
C25: x0+x47 <=1 
C26: x0+x48 <=1 
C27: x0+x49 <=1 
C28: x0+x50-y0_50 <=1 
C29: x0+x54 <=1 
C30: x0+x55 <=1 
C31: x0+x57-y0_57 <=1 
C32: x0+x58 <=1 
C33: x0+x59 <=1 
C34: x0+x60 <=1 
C35: x0+x62-y0_62 <=1 
C36: x0+x63 <=1 
C37: x1+x2 <=1 
C38: x1+x3 <=1 
C39: x1+x4-y1_4 <=1 
C40: x1+x6 <=1 
C41: x1+x7 <=1 
C42: x1+x8-y1_8 <=1 
C43: x1+x9-y1_9 <=1 
C44: x1+x10 <=1 
C45: x1+x13 <=1 
C46: x1+x14-y1_14 <=1 
C47: x1+x16 <=1 
C48: x1+x17-y1_17 <=1 
C49: x1+x18-y1_18 <=1 
C50: x1+x19 <=1 
C51: x1+x20 <=1 
C52: x1+x21 <=1 
C53: x1+x24-y1_24 <=1 
C54: x1+x25-y1_25 <=1 
C55: x1+x26 <=1 
C56: x1+x27 <=1 
C57: x1+x29-y1_29 <=1 
C58: x1+x31-y1_31 <=1 
C59: x1+x32-y1_32 <=1 
C60: x1+x33 <=1 
C61: x1+x34-y1_34 <=1 
C62: x1+x36-y1_36 <=1 
C63: x1+x37-y1_37 <=1 
C64: x1+x38-y1_38 <=1 
C65: x1+x40-y1_40 <=1 
C66: x1+x42 <=1 
C67: x1+x43-y1_43 <=1 
C68: x1+x44-y1_44 <=1 
C69: x1+x45-y1_45 <=1 
C70: x1+x46 <=1 
C71: x1+x47-y1_47 <=1 
C72: x1+x52 <=1 
C73: x1+x53 <=1 
C74: x1+x56-y1_56 <=1 
C75: x1+x57-y1_57 <=1 
C76: x1+x58 <=1 
C77: x1+x59-y1_59 <=1 
C78: x1+x62-y1_62 <=1 
C79: x1+x63-y1_63 <=1 
C80: x2+x5-y2_5 <=1 
C81: x2+x7-y2_7 <=1 
C82: x2+x10 <=1 
C83: x2+x12 <=1 
C84: x2+x13 <=1 
C85: x2+x14-y2_14 <=1 
C86: x2+x16-y2_16 <=1 
C87: x2+x17 <=1 
C88: x2+x18-y2_18 <=1 
C89: x2+x19 <=1 
C90: x2+x21-y2_21 <=1 
C91: x2+x22 <=1 
C92: x2+x25-y2_25 <=1 
C93: x2+x27-y2_27 <=1 
C94: x2+x28 <=1 
C95: x2+x29 <=1 
C96: x2+x31 <=1 
C97: x2+x34-y2_34 <=1 
C98: x2+x35-y2_35 <=1 
C99: x2+x37-y2_37 <=1 
C100: x2+x38 <=1 
C101: x2+x41-y2_41 <=1 
C102: x2+x42 <=1 
C103: x2+x43-y2_43 <=1 
C104: x2+x46-y2_46 <=1 
C105: x2+x48-y2_48 <=1 
C106: x2+x51-y2_51 <=1 
C107: x2+x52-y2_52 <=1 
C108: x2+x53-y2_53 <=1 
C109: x2+x54 <=1 
C110: x2+x56 <=1 
C111: x2+x57 <=1 
C112: x2+x58 <=1 
C113: x2+x59-y2_59 <=1 
C114: x2+x60-y2_60 <=1 
C115: x2+x62 <=1 
C116: x2+x63 <=1 
C117: x3+x4-y3_4 <=1 
C118: x3+x6-y3_6 <=1 
C119: x3+x7 <=1 
C120: x3+x8-y3_8 <=1 
C121: x3+x10 <=1 
C122: x3+x11 <=1 
C123: x3+x16-y3_16 <=1 
C124: x3+x17-y3_17 <=1 
C125: x3+x18 <=1 
C126: x3+x19 <=1 
C127: x3+x23-y3_23 <=1 
C128: x3+x24 <=1 
C129: x3+x25-y3_25 <=1 
C130: x3+x27 <=1 
C131: x3+x28 <=1 
C132: x3+x29-y3_29 <=1 
C133: x3+x30 <=1 
C134: x3+x31-y3_31 <=1 
C135: x3+x34-y3_34 <=1 
C136: x3+x37-y3_37 <=1 
C137: x3+x38 <=1 
C138: x3+x39-y3_39 <=1 
C139: x3+x40-y3_40 <=1 
C140: x3+x42-y3_42 <=1 
C141: x3+x44-y3_44 <=1 
C142: x3+x45 <=1 
C143: x3+x49-y3_49 <=1 
C144: x3+x50-y3_50 <=1 
C145: x3+x53 <=1 
C146: x3+x54 <=1 
C147: x3+x55 <=1 
C148: x3+x56 <=1 
C149: x3+x57-y3_57 <=1 
C150: x3+x58-y3_58 <=1 
C151: x4+x8-y4_8 <=1 
C152: x4+x9 <=1 
C153: x4+x10-y4_10 <=1 
C154: x4+x11 <=1 
C155: x4+x12 <=1 
C156: x4+x13-y4_13 <=1 
C157: x4+x14-y4_14 <=1 
C158: x4+x21 <=1 
C159: x4+x22-y4_22 <=1 
C160: x4+x24-y4_24 <=1 
C161: x4+x25 <=1 
C162: x4+x26 <=1 
C163: x4+x27 <=1 
C164: x4+x28 <=1 
C165: x4+x30 <=1 
C166: x4+x31 <=1 
C167: x4+x32 <=1 
C168: x4+x33-y4_33 <=1 
C169: x4+x35 <=1 
C170: x4+x36-y4_36 <=1 
C171: x4+x38 <=1 
C172: x4+x40 <=1 
C173: x4+x43-y4_43 <=1 
C174: x4+x46-y4_46 <=1 
C175: x4+x47-y4_47 <=1 
C176: x4+x48-y4_48 <=1 
C177: x4+x51 <=1 
C178: x4+x52-y4_52 <=1 
C179: x4+x54-y4_54 <=1 
C180: x4+x55-y4_55 <=1 
C181: x4+x57-y4_57 <=1 
C182: x4+x61-y4_61 <=1 
C183: x4+x62 <=1 
C184: x4+x63-y4_63 <=1 
C185: x5+x6-y5_6 <=1 
C186: x5+x11-y5_11 <=1 
C187: x5+x12 <=1 
C188: x5+x13 <=1 
C189: x5+x14-y5_14 <=1 
C190: x5+x15-y5_15 <=1 
C191: x5+x16 <=1 
C192: x5+x18-y5_18 <=1 
C193: x5+x19-y5_19 <=1 
C194: x5+x20 <=1 
C195: x5+x21 <=1 
C196: x5+x26 <=1 
C197: x5+x27 <=1 
C198: x5+x28-y5_28 <=1 
C199: x5+x30-y5_30 <=1 
C200: x5+x31-y5_31 <=1 
C201: x5+x33 <=1 
C202: x5+x34 <=1 
C203: x5+x35 <=1 
C204: x5+x37 <=1 
C205: x5+x38-y5_38 <=1 
C206: x5+x40-y5_40 <=1 
C207: x5+x41-y5_41 <=1 
C208: x5+x42 <=1 
C209: x5+x43-y5_43 <=1 
C210: x5+x44-y5_44 <=1 
C211: x5+x45-y5_45 <=1 
C212: x5+x47 <=1 
C213: x5+x51-y5_51 <=1 
C214: x5+x54 <=1 
C215: x5+x55 <=1 
C216: x5+x58-y5_58 <=1 
C217: x5+x59 <=1 
C218: x5+x61 <=1 
C219: x5+x62 <=1 
C220: x5+x63-y5_63 <=1 
C221: x6+x7-y6_7 <=1 
C222: x6+x8-y6_8 <=1 
C223: x6+x11 <=1 
C224: x6+x13-y6_13 <=1 
C225: x6+x16 <=1 
C226: x6+x18-y6_18 <=1 
C227: x6+x23-y6_23 <=1 
C228: x6+x24 <=1 
C229: x6+x25 <=1 
C230: x6+x26 <=1 
C231: x6+x29-y6_29 <=1 
C232: x6+x32 <=1 
C233: x6+x33 <=1 
C234: x6+x36 <=1 
C235: x6+x37-y6_37 <=1 
C236: x6+x39-y6_39 <=1 
C237: x6+x40 <=1 
C238: x6+x41-y6_41 <=1 
C239: x6+x42-y6_42 <=1 
C240: x6+x45-y6_45 <=1 
C241: x6+x49 <=1 
C242: x6+x50 <=1 
C243: x6+x52 <=1 
C244: x6+x54 <=1 
C245: x6+x57 <=1 
C246: x6+x58 <=1 
C247: x6+x60 <=1 
C248: x6+x61 <=1 
C249: x6+x63-y6_63 <=1 
C250: x7+x9-y7_9 <=1 
C251: x7+x12-y7_12 <=1 
C252: x7+x13 <=1 
C253: x7+x14-y7_14 <=1 
C254: x7+x15-y7_15 <=1 
C255: x7+x16-y7_16 <=1 
C256: x7+x21 <=1 
C257: x7+x26 <=1 
C258: x7+x29 <=1 
C259: x7+x31 <=1 
C260: x7+x32 <=1 
C261: x7+x36 <=1 
C262: x7+x37-y7_37 <=1 
C263: x7+x40 <=1 
C264: x7+x42 <=1 
C265: x7+x44 <=1 
C266: x7+x45-y7_45 <=1 
C267: x7+x47-y7_47 <=1 
C268: x7+x48-y7_48 <=1 
C269: x7+x49-y7_49 <=1 
C270: x7+x50 <=1 
C271: x7+x51-y7_51 <=1 
C272: x7+x52-y7_52 <=1 
C273: x7+x54 <=1 
C274: x7+x55 <=1 
C275: x7+x56 <=1 
C276: x7+x58-y7_58 <=1 
C277: x7+x59-y7_59 <=1 
C278: x7+x60 <=1 
C279: x7+x62-y7_62 <=1 
C280: x7+x63 <=1 
C281: x8+x12-y8_12 <=1 
C282: x8+x13 <=1 
C283: x8+x18 <=1 
C284: x8+x19-y8_19 <=1 
C285: x8+x23 <=1 
C286: x8+x25 <=1 
C287: x8+x27-y8_27 <=1 
C288: x8+x28-y8_28 <=1 
C289: x8+x29-y8_29 <=1 
C290: x8+x33 <=1 
C291: x8+x34 <=1 
C292: x8+x35-y8_35 <=1 
C293: x8+x37-y8_37 <=1 
C294: x8+x38 <=1 
C295: x8+x39-y8_39 <=1 
C296: x8+x40-y8_40 <=1 
C297: x8+x41 <=1 
C298: x8+x42-y8_42 <=1 
C299: x8+x43 <=1 
C300: x8+x45 <=1 
C301: x8+x46 <=1 
C302: x8+x47-y8_47 <=1 
C303: x8+x51-y8_51 <=1 
C304: x8+x52-y8_52 <=1 
C305: x8+x53-y8_53 <=1 
C306: x8+x57 <=1 
C307: x8+x58 <=1 
C308: x8+x62 <=1 
C309: x9+x10 <=1 
C310: x9+x11-y9_11 <=1 
C311: x9+x12-y9_12 <=1 
C312: x9+x13-y9_13 <=1 
C313: x9+x15-y9_15 <=1 
C314: x9+x16-y9_16 <=1 
C315: x9+x19 <=1 
C316: x9+x22 <=1 
C317: x9+x25-y9_25 <=1 
C318: x9+x26-y9_26 <=1 
C319: x9+x29 <=1 
C320: x9+x32 <=1 
C321: x9+x34 <=1 
C322: x9+x35 <=1 
C323: x9+x36 <=1 
C324: x9+x38 <=1 
C325: x9+x39-y9_39 <=1 
C326: x9+x40-y9_40 <=1 
C327: x9+x41 <=1 
C328: x9+x42 <=1 
C329: x9+x43-y9_43 <=1 
C330: x9+x45-y9_45 <=1 
C331: x9+x46 <=1 
C332: x9+x48-y9_48 <=1 
C333: x9+x49 <=1 
C334: x9+x50-y9_50 <=1 
C335: x9+x52 <=1 
C336: x9+x53-y9_53 <=1 
C337: x9+x55-y9_55 <=1 
C338: x9+x58 <=1 
C339: x9+x59-y9_59 <=1 
C340: x9+x60 <=1 
C341: x9+x62-y9_62 <=1 
C342: x9+x63 <=1 
C343: x10+x12-y10_12 <=1 
C344: x10+x14-y10_14 <=1 
C345: x10+x17 <=1 
C346: x10+x18-y10_18 <=1 
C347: x10+x19 <=1 
C348: x10+x21 <=1 
C349: x10+x22 <=1 
C350: x10+x24 <=1 
C351: x10+x25 <=1 
C352: x10+x27 <=1 
C353: x10+x29-y10_29 <=1 
C354: x10+x30-y10_30 <=1 
C355: x10+x33 <=1 
C356: x10+x36 <=1 
C357: x10+x39-y10_39 <=1 
C358: x10+x40-y10_40 <=1 
C359: x10+x42 <=1 
C360: x10+x44-y10_44 <=1 
C361: x10+x47-y10_47 <=1 
C362: x10+x51-y10_51 <=1 
C363: x10+x54 <=1 
C364: x10+x55 <=1 
C365: x10+x56 <=1 
C366: x10+x57 <=1 
C367: x10+x58 <=1 
C368: x10+x59 <=1 
C369: x10+x62-y10_62 <=1 
C370: x11+x12 <=1 
C371: x11+x13 <=1 
C372: x11+x14-y11_14 <=1 
C373: x11+x15 <=1 
C374: x11+x16-y11_16 <=1 
C375: x11+x18 <=1 
C376: x11+x21 <=1 
C377: x11+x22 <=1 
C378: x11+x23 <=1 
C379: x11+x24-y11_24 <=1 
C380: x11+x25-y11_25 <=1 
C381: x11+x26-y11_26 <=1 
C382: x11+x27-y11_27 <=1 
C383: x11+x28 <=1 
C384: x11+x29 <=1 
C385: x11+x30-y11_30 <=1 
C386: x11+x31 <=1 
C387: x11+x32 <=1 
C388: x11+x33-y11_33 <=1 
C389: x11+x34-y11_34 <=1 
C390: x11+x35 <=1 
C391: x11+x36 <=1 
C392: x11+x37-y11_37 <=1 
C393: x11+x38-y11_38 <=1 
C394: x11+x39 <=1 
C395: x11+x43-y11_43 <=1 
C396: x11+x45-y11_45 <=1 
C397: x11+x46-y11_46 <=1 
C398: x11+x47 <=1 
C399: x11+x50 <=1 
C400: x11+x53 <=1 
C401: x11+x55-y11_55 <=1 
C402: x11+x56 <=1 
C403: x11+x58 <=1 
C404: x11+x60 <=1 
C405: x11+x61 <=1 
C406: x11+x62-y11_62 <=1 
C407: x12+x13 <=1 
C408: x12+x14-y12_14 <=1 
C409: x12+x15 <=1 
C410: x12+x16-y12_16 <=1 
C411: x12+x17 <=1 
C412: x12+x18 <=1 
C413: x12+x20-y12_20 <=1 
C414: x12+x22-y12_22 <=1 
C415: x12+x24 <=1 
C416: x12+x25 <=1 
C417: x12+x26-y12_26 <=1 
C418: x12+x27 <=1 
C419: x12+x28-y12_28 <=1 
C420: x12+x30 <=1 
C421: x12+x31 <=1 
C422: x12+x32 <=1 
C423: x12+x33 <=1 
C424: x12+x34-y12_34 <=1 
C425: x12+x35-y12_35 <=1 
C426: x12+x39-y12_39 <=1 
C427: x12+x42-y12_42 <=1 
C428: x12+x45 <=1 
C429: x12+x46 <=1 
C430: x12+x49 <=1 
C431: x12+x50 <=1 
C432: x12+x51 <=1 
C433: x12+x54-y12_54 <=1 
C434: x12+x56 <=1 
C435: x12+x59 <=1 
C436: x13+x15 <=1 
C437: x13+x16 <=1 
C438: x13+x17-y13_17 <=1 
C439: x13+x19 <=1 
C440: x13+x20 <=1 
C441: x13+x21-y13_21 <=1 
C442: x13+x22 <=1 
C443: x13+x23 <=1 
C444: x13+x25-y13_25 <=1 
C445: x13+x27 <=1 
C446: x13+x28 <=1 
C447: x13+x29 <=1 
C448: x13+x31-y13_31 <=1 
C449: x13+x34-y13_34 <=1 
C450: x13+x35 <=1 
C451: x13+x36 <=1 
C452: x13+x37-y13_37 <=1 
C453: x13+x38 <=1 
C454: x13+x40-y13_40 <=1 
C455: x13+x43 <=1 
C456: x13+x44-y13_44 <=1 
C457: x13+x45-y13_45 <=1 
C458: x13+x47 <=1 
C459: x13+x48 <=1 
C460: x13+x50-y13_50 <=1 
C461: x13+x51-y13_51 <=1 
C462: x13+x54-y13_54 <=1 
C463: x13+x55-y13_55 <=1 
C464: x13+x56-y13_56 <=1 
C465: x13+x57 <=1 
C466: x13+x58-y13_58 <=1 
C467: x13+x59-y13_59 <=1 
C468: x13+x61 <=1 
C469: x13+x63 <=1 
C470: x14+x16-y14_16 <=1 
C471: x14+x18-y14_18 <=1 
C472: x14+x22-y14_22 <=1 
C473: x14+x23 <=1 
C474: x14+x26-y14_26 <=1 
C475: x14+x27-y14_27 <=1 
C476: x14+x28 <=1 
C477: x14+x29 <=1 
C478: x14+x31 <=1 
C479: x14+x32-y14_32 <=1 
C480: x14+x33-y14_33 <=1 
C481: x14+x34 <=1 
C482: x14+x37 <=1 
C483: x14+x41 <=1 
C484: x14+x42 <=1 
C485: x14+x43-y14_43 <=1 
C486: x14+x48-y14_48 <=1 
C487: x14+x49 <=1 
C488: x14+x50 <=1 
C489: x14+x53 <=1 
C490: x14+x54-y14_54 <=1 
C491: x14+x55 <=1 
C492: x14+x57-y14_57 <=1 
C493: x14+x60 <=1 
C494: x14+x61-y14_61 <=1 
C495: x15+x16-y15_16 <=1 
C496: x15+x17-y15_17 <=1 
C497: x15+x18 <=1 
C498: x15+x19 <=1 
C499: x15+x20 <=1 
C500: x15+x22 <=1 
C501: x15+x23-y15_23 <=1 
C502: x15+x25-y15_25 <=1 
C503: x15+x28 <=1 
C504: x15+x29-y15_29 <=1 
C505: x15+x30-y15_30 <=1 
C506: x15+x31 <=1 
C507: x15+x32-y15_32 <=1 
C508: x15+x33-y15_33 <=1 
C509: x15+x34-y15_34 <=1 
C510: x15+x36 <=1 
C511: x15+x38 <=1 
C512: x15+x39-y15_39 <=1 
C513: x15+x40-y15_40 <=1 
C514: x15+x42-y15_42 <=1 
C515: x15+x44 <=1 
C516: x15+x45 <=1 
C517: x15+x47 <=1 
C518: x15+x48-y15_48 <=1 
C519: x15+x52-y15_52 <=1 
C520: x15+x55-y15_55 <=1 
C521: x15+x56 <=1 
C522: x15+x57 <=1 
C523: x15+x58 <=1 
C524: x15+x59-y15_59 <=1 
C525: x15+x60-y15_60 <=1 
C526: x15+x61 <=1 
C527: x15+x62 <=1 
C528: x15+x63 <=1 
C529: x16+x20 <=1 
C530: x16+x21 <=1 
C531: x16+x22-y16_22 <=1 
C532: x16+x25-y16_25 <=1 
C533: x16+x30-y16_30 <=1 
C534: x16+x33-y16_33 <=1 
C535: x16+x39 <=1 
C536: x16+x43 <=1 
C537: x16+x45-y16_45 <=1 
C538: x16+x46 <=1 
C539: x16+x47 <=1 
C540: x16+x48-y16_48 <=1 
C541: x16+x49 <=1 
C542: x16+x50 <=1 
C543: x16+x51-y16_51 <=1 
C544: x16+x52 <=1 
C545: x16+x53 <=1 
C546: x16+x56-y16_56 <=1 
C547: x16+x57-y16_57 <=1 
C548: x16+x58 <=1 
C549: x16+x60 <=1 
C550: x16+x61-y16_61 <=1 
C551: x16+x62 <=1 
C552: x16+x63 <=1 
C553: x17+x21 <=1 
C554: x17+x22 <=1 
C555: x17+x23 <=1 
C556: x17+x25-y17_25 <=1 
C557: x17+x27-y17_27 <=1 
C558: x17+x28 <=1 
C559: x17+x30-y17_30 <=1 
C560: x17+x31-y17_31 <=1 
C561: x17+x32-y17_32 <=1 
C562: x17+x34 <=1 
C563: x17+x36-y17_36 <=1 
C564: x17+x37-y17_37 <=1 
C565: x17+x38 <=1 
C566: x17+x39-y17_39 <=1 
C567: x17+x40-y17_40 <=1 
C568: x17+x41 <=1 
C569: x17+x44 <=1 
C570: x17+x45-y17_45 <=1 
C571: x17+x46-y17_46 <=1 
C572: x17+x49 <=1 
C573: x17+x52 <=1 
C574: x17+x53-y17_53 <=1 
C575: x17+x54 <=1 
C576: x17+x56-y17_56 <=1 
C577: x17+x58 <=1 
C578: x17+x59 <=1 
C579: x17+x60-y17_60 <=1 
C580: x17+x61-y17_61 <=1 
C581: x17+x62-y17_62 <=1 
C582: x17+x63 <=1 
C583: x18+x20 <=1 
C584: x18+x21-y18_21 <=1 
C585: x18+x22 <=1 
C586: x18+x23-y18_23 <=1 
C587: x18+x24 <=1 
C588: x18+x26 <=1 
C589: x18+x29 <=1 
C590: x18+x30 <=1 
C591: x18+x32 <=1 
C592: x18+x33-y18_33 <=1 
C593: x18+x36-y18_36 <=1 
C594: x18+x37 <=1 
C595: x18+x40 <=1 
C596: x18+x41-y18_41 <=1 
C597: x18+x44 <=1 
C598: x18+x45 <=1 
C599: x18+x47-y18_47 <=1 
C600: x18+x48 <=1 
C601: x18+x49 <=1 
C602: x18+x53 <=1 
C603: x18+x55 <=1 
C604: x18+x57-y18_57 <=1 
C605: x18+x58 <=1 
C606: x18+x60 <=1 
C607: x18+x61-y18_61 <=1 
C608: x18+x62 <=1 
C609: x18+x63 <=1 
C610: x19+x20-y19_20 <=1 
C611: x19+x24 <=1 
C612: x19+x27 <=1 
C613: x19+x28-y19_28 <=1 
C614: x19+x29-y19_29 <=1 
C615: x19+x30 <=1 
C616: x19+x31-y19_31 <=1 
C617: x19+x36 <=1 
C618: x19+x37 <=1 
C619: x19+x38 <=1 
C620: x19+x39 <=1 
C621: x19+x42-y19_42 <=1 
C622: x19+x43 <=1 
C623: x19+x46 <=1 
C624: x19+x47 <=1 
C625: x19+x48-y19_48 <=1 
C626: x19+x50 <=1 
C627: x19+x51 <=1 
C628: x19+x52-y19_52 <=1 
C629: x19+x53-y19_53 <=1 
C630: x19+x54 <=1 
C631: x19+x55-y19_55 <=1 
C632: x19+x56-y19_56 <=1 
C633: x19+x57-y19_57 <=1 
C634: x19+x58 <=1 
C635: x19+x59 <=1 
C636: x19+x60-y19_60 <=1 
C637: x19+x61 <=1 
C638: x20+x22-y20_22 <=1 
C639: x20+x23-y20_23 <=1 
C640: x20+x25-y20_25 <=1 
C641: x20+x28 <=1 
C642: x20+x29 <=1 
C643: x20+x30 <=1 
C644: x20+x31-y20_31 <=1 
C645: x20+x32 <=1 
C646: x20+x34 <=1 
C647: x20+x36 <=1 
C648: x20+x38-y20_38 <=1 
C649: x20+x39-y20_39 <=1 
C650: x20+x41-y20_41 <=1 
C651: x20+x43 <=1 
C652: x20+x44-y20_44 <=1 
C653: x20+x45-y20_45 <=1 
C654: x20+x46-y20_46 <=1 
C655: x20+x49-y20_49 <=1 
C656: x20+x52-y20_52 <=1 
C657: x20+x56-y20_56 <=1 
C658: x20+x57-y20_57 <=1 
C659: x20+x59-y20_59 <=1 
C660: x20+x60-y20_60 <=1 
C661: x20+x61 <=1 
C662: x20+x62-y20_62 <=1 
C663: x21+x27-y21_27 <=1 
C664: x21+x29 <=1 
C665: x21+x31-y21_31 <=1 
C666: x21+x32 <=1 
C667: x21+x33 <=1 
C668: x21+x34 <=1 
C669: x21+x36-y21_36 <=1 
C670: x21+x37 <=1 
C671: x21+x38-y21_38 <=1 
C672: x21+x39-y21_39 <=1 
C673: x21+x40-y21_40 <=1 
C674: x21+x42 <=1 
C675: x21+x45 <=1 
C676: x21+x46-y21_46 <=1 
C677: x21+x47 <=1 
C678: x21+x48 <=1 
C679: x21+x49-y21_49 <=1 
C680: x21+x50 <=1 
C681: x21+x53-y21_53 <=1 
C682: x21+x54-y21_54 <=1 
C683: x21+x56 <=1 
C684: x21+x57 <=1 
C685: x21+x59 <=1 
C686: x21+x60-y21_60 <=1 
C687: x21+x61-y21_61 <=1 
C688: x21+x62-y21_62 <=1 
C689: x21+x63 <=1 
C690: x22+x27 <=1 
C691: x22+x30-y22_30 <=1 
C692: x22+x31-y22_31 <=1 
C693: x22+x32-y22_32 <=1 
C694: x22+x34-y22_34 <=1 
C695: x22+x38-y22_38 <=1 
C696: x22+x39 <=1 
C697: x22+x43-y22_43 <=1 
C698: x22+x44 <=1 
C699: x22+x45-y22_45 <=1 
C700: x22+x50 <=1 
C701: x22+x52-y22_52 <=1 
C702: x22+x53-y22_53 <=1 
C703: x22+x58-y22_58 <=1 
C704: x22+x60 <=1 
C705: x22+x61-y22_61 <=1 
C706: x22+x62 <=1 
C707: x22+x63-y22_63 <=1 
C708: x23+x25-y23_25 <=1 
C709: x23+x26-y23_26 <=1 
C710: x23+x27-y23_27 <=1 
C711: x23+x28-y23_28 <=1 
C712: x23+x29-y23_29 <=1 
C713: x23+x30 <=1 
C714: x23+x31 <=1 
C715: x23+x33 <=1 
C716: x23+x34-y23_34 <=1 
C717: x23+x35 <=1 
C718: x23+x36 <=1 
C719: x23+x37 <=1 
C720: x23+x41 <=1 
C721: x23+x42 <=1 
C722: x23+x44-y23_44 <=1 
C723: x23+x47-y23_47 <=1 
C724: x23+x48 <=1 
C725: x23+x51 <=1 
C726: x23+x54-y23_54 <=1 
C727: x23+x58-y23_58 <=1 
C728: x23+x59 <=1 
C729: x23+x61 <=1 
C730: x23+x62 <=1 
C731: x24+x26-y24_26 <=1 
C732: x24+x28 <=1 
C733: x24+x31-y24_31 <=1 
C734: x24+x32 <=1 
C735: x24+x33 <=1 
C736: x24+x34-y24_34 <=1 
C737: x24+x35 <=1 
C738: x24+x36 <=1 
C739: x24+x39 <=1 
C740: x24+x40 <=1 
C741: x24+x42 <=1 
C742: x24+x43-y24_43 <=1 
C743: x24+x44-y24_44 <=1 
C744: x24+x48-y24_48 <=1 
C745: x24+x50 <=1 
C746: x24+x52-y24_52 <=1 
C747: x24+x55-y24_55 <=1 
C748: x24+x56-y24_56 <=1 
C749: x24+x57-y24_57 <=1 
C750: x24+x58-y24_58 <=1 
C751: x24+x59 <=1 
C752: x24+x60 <=1 
C753: x24+x61 <=1 
C754: x24+x62-y24_62 <=1 
C755: x24+x63-y24_63 <=1 
C756: x25+x26-y25_26 <=1 
C757: x25+x28 <=1 
C758: x25+x29-y25_29 <=1 
C759: x25+x31 <=1 
C760: x25+x33 <=1 
C761: x25+x34-y25_34 <=1 
C762: x25+x35-y25_35 <=1 
C763: x25+x36-y25_36 <=1 
C764: x25+x37-y25_37 <=1 
C765: x25+x38 <=1 
C766: x25+x41 <=1 
C767: x25+x43 <=1 
C768: x25+x44 <=1 
C769: x25+x45 <=1 
C770: x25+x47-y25_47 <=1 
C771: x25+x48 <=1 
C772: x25+x49-y25_49 <=1 
C773: x25+x51 <=1 
C774: x25+x52 <=1 
C775: x25+x53-y25_53 <=1 
C776: x25+x54 <=1 
C777: x25+x60-y25_60 <=1 
C778: x26+x27-y26_27 <=1 
C779: x26+x28 <=1 
C780: x26+x31 <=1 
C781: x26+x32-y26_32 <=1 
C782: x26+x34-y26_34 <=1 
C783: x26+x35-y26_35 <=1 
C784: x26+x36-y26_36 <=1 
C785: x26+x38-y26_38 <=1 
C786: x26+x39 <=1 
C787: x26+x40 <=1 
C788: x26+x42-y26_42 <=1 
C789: x26+x43 <=1 
C790: x26+x44-y26_44 <=1 
C791: x26+x45 <=1 
C792: x26+x50-y26_50 <=1 
C793: x26+x51 <=1 
C794: x26+x52-y26_52 <=1 
C795: x26+x54 <=1 
C796: x26+x56 <=1 
C797: x26+x59 <=1 
C798: x26+x61-y26_61 <=1 
C799: x26+x62-y26_62 <=1 
C800: x26+x63 <=1 
C801: x27+x29 <=1 
C802: x27+x30-y27_30 <=1 
C803: x27+x31 <=1 
C804: x27+x33-y27_33 <=1 
C805: x27+x37-y27_37 <=1 
C806: x27+x38 <=1 
C807: x27+x39-y27_39 <=1 
C808: x27+x40-y27_40 <=1 
C809: x27+x41-y27_41 <=1 
C810: x27+x46 <=1 
C811: x27+x47 <=1 
C812: x27+x48 <=1 
C813: x27+x49-y27_49 <=1 
C814: x27+x53 <=1 
C815: x27+x55 <=1 
C816: x27+x57 <=1 
C817: x27+x58-y27_58 <=1 
C818: x27+x61 <=1 
C819: x27+x62-y27_62 <=1 
C820: x28+x29 <=1 
C821: x28+x33 <=1 
C822: x28+x34 <=1 
C823: x28+x35 <=1 
C824: x28+x36-y28_36 <=1 
C825: x28+x37-y28_37 <=1 
C826: x28+x40-y28_40 <=1 
C827: x28+x42 <=1 
C828: x28+x44 <=1 
C829: x28+x47 <=1 
C830: x28+x49-y28_49 <=1 
C831: x28+x52-y28_52 <=1 
C832: x28+x55 <=1 
C833: x28+x58-y28_58 <=1 
C834: x28+x59 <=1 
C835: x28+x60 <=1 
C836: x28+x61-y28_61 <=1 
C837: x28+x62-y28_62 <=1 
C838: x28+x63 <=1 
C839: x29+x30 <=1 
C840: x29+x31-y29_31 <=1 
C841: x29+x32-y29_32 <=1 
C842: x29+x34-y29_34 <=1 
C843: x29+x35 <=1 
C844: x29+x36-y29_36 <=1 
C845: x29+x37 <=1 
C846: x29+x39-y29_39 <=1 
C847: x29+x40 <=1 
C848: x29+x42 <=1 
C849: x29+x44-y29_44 <=1 
C850: x29+x45 <=1 
C851: x29+x46 <=1 
C852: x29+x49-y29_49 <=1 
C853: x29+x50-y29_50 <=1 
C854: x29+x53-y29_53 <=1 
C855: x29+x56-y29_56 <=1 
C856: x29+x58-y29_58 <=1 
C857: x29+x60-y29_60 <=1 
C858: x29+x61-y29_61 <=1 
C859: x29+x62 <=1 
C860: x29+x63-y29_63 <=1 
C861: x30+x31 <=1 
C862: x30+x32-y30_32 <=1 
C863: x30+x33 <=1 
C864: x30+x34-y30_34 <=1 
C865: x30+x35 <=1 
C866: x30+x36-y30_36 <=1 
C867: x30+x37 <=1 
C868: x30+x39-y30_39 <=1 
C869: x30+x40-y30_40 <=1 
C870: x30+x41 <=1 
C871: x30+x43-y30_43 <=1 
C872: x30+x44-y30_44 <=1 
C873: x30+x45 <=1 
C874: x30+x46 <=1 
C875: x30+x50 <=1 
C876: x30+x51-y30_51 <=1 
C877: x30+x52 <=1 
C878: x30+x56 <=1 
C879: x30+x57-y30_57 <=1 
C880: x30+x58-y30_58 <=1 
C881: x30+x59-y30_59 <=1 
C882: x30+x61-y30_61 <=1 
C883: x30+x63-y30_63 <=1 
C884: x31+x32-y31_32 <=1 
C885: x31+x33-y31_33 <=1 
C886: x31+x34 <=1 
C887: x31+x36-y31_36 <=1 
C888: x31+x37 <=1 
C889: x31+x39 <=1 
C890: x31+x43 <=1 
C891: x31+x45-y31_45 <=1 
C892: x31+x46-y31_46 <=1 
C893: x31+x47-y31_47 <=1 
C894: x31+x48 <=1 
C895: x31+x49 <=1 
C896: x31+x50-y31_50 <=1 
C897: x31+x53 <=1 
C898: x31+x55 <=1 
C899: x31+x56 <=1 
C900: x31+x57 <=1 
C901: x31+x60-y31_60 <=1 
C902: x31+x61 <=1 
C903: x31+x62 <=1 
C904: x31+x63-y31_63 <=1 
C905: x32+x33 <=1 
C906: x32+x34 <=1 
C907: x32+x35 <=1 
C908: x32+x39 <=1 
C909: x32+x40 <=1 
C910: x32+x42-y32_42 <=1 
C911: x32+x43 <=1 
C912: x32+x44 <=1 
C913: x32+x45 <=1 
C914: x32+x47 <=1 
C915: x32+x49 <=1 
C916: x32+x51-y32_51 <=1 
C917: x32+x52-y32_52 <=1 
C918: x32+x55-y32_55 <=1 
C919: x32+x56-y32_56 <=1 
C920: x32+x58-y32_58 <=1 
C921: x32+x59-y32_59 <=1 
C922: x32+x60-y32_60 <=1 
C923: x32+x61-y32_61 <=1 
C924: x32+x63-y32_63 <=1 
C925: x33+x34 <=1 
C926: x33+x36 <=1 
C927: x33+x37-y33_37 <=1 
C928: x33+x38-y33_38 <=1 
C929: x33+x39-y33_39 <=1 
C930: x33+x42 <=1 
C931: x33+x43-y33_43 <=1 
C932: x33+x45 <=1 
C933: x33+x49-y33_49 <=1 
C934: x33+x50-y33_50 <=1 
C935: x33+x52 <=1 
C936: x33+x54 <=1 
C937: x33+x55 <=1 
C938: x33+x56-y33_56 <=1 
C939: x33+x57-y33_57 <=1 
C940: x33+x58-y33_58 <=1 
C941: x33+x59 <=1 
C942: x33+x60 <=1 
C943: x33+x61 <=1 
C944: x33+x62-y33_62 <=1 
C945: x34+x36-y34_36 <=1 
C946: x34+x37 <=1 
C947: x34+x38-y34_38 <=1 
C948: x34+x39-y34_39 <=1 
C949: x34+x40-y34_40 <=1 
C950: x34+x41 <=1 
C951: x34+x42 <=1 
C952: x34+x45 <=1 
C953: x34+x49 <=1 
C954: x34+x50 <=1 
C955: x34+x52-y34_52 <=1 
C956: x34+x53-y34_53 <=1 
C957: x34+x55-y34_55 <=1 
C958: x34+x56-y34_56 <=1 
C959: x34+x57 <=1 
C960: x34+x59 <=1 
C961: x34+x60 <=1 
C962: x34+x62-y34_62 <=1 
C963: x35+x36-y35_36 <=1 
C964: x35+x37 <=1 
C965: x35+x39 <=1 
C966: x35+x41-y35_41 <=1 
C967: x35+x42 <=1 
C968: x35+x43 <=1 
C969: x35+x45-y35_45 <=1 
C970: x35+x46-y35_46 <=1 
C971: x35+x48-y35_48 <=1 
C972: x35+x49 <=1 
C973: x35+x51-y35_51 <=1 
C974: x35+x52 <=1 
C975: x35+x53-y35_53 <=1 
C976: x35+x56 <=1 
C977: x35+x57-y35_57 <=1 
C978: x35+x60-y35_60 <=1 
C979: x35+x62-y35_62 <=1 
C980: x36+x38-y36_38 <=1 
C981: x36+x39 <=1 
C982: x36+x40 <=1 
C983: x36+x42-y36_42 <=1 
C984: x36+x43-y36_43 <=1 
C985: x36+x44-y36_44 <=1 
C986: x36+x45 <=1 
C987: x36+x48 <=1 
C988: x36+x49 <=1 
C989: x36+x50 <=1 
C990: x36+x51 <=1 
C991: x36+x53-y36_53 <=1 
C992: x36+x54-y36_54 <=1 
C993: x36+x56 <=1 
C994: x36+x58-y36_58 <=1 
C995: x36+x61-y36_61 <=1 
C996: x36+x63 <=1 
C997: x37+x39 <=1 
C998: x37+x40 <=1 
C999: x37+x41-y37_41 <=1 
C1000: x37+x42 <=1 
C1001: x37+x44 <=1 
C1002: x37+x47-y37_47 <=1 
C1003: x37+x48-y37_48 <=1 
C1004: x37+x49 <=1 
C1005: x37+x52 <=1 
C1006: x37+x53-y37_53 <=1 
C1007: x37+x54-y37_54 <=1 
C1008: x37+x55 <=1 
C1009: x37+x57-y37_57 <=1 
C1010: x37+x59-y37_59 <=1 
C1011: x37+x61-y37_61 <=1 
C1012: x38+x41 <=1 
C1013: x38+x42 <=1 
C1014: x38+x43 <=1 
C1015: x38+x44-y38_44 <=1 
C1016: x38+x45 <=1 
C1017: x38+x46-y38_46 <=1 
C1018: x38+x47 <=1 
C1019: x38+x48-y38_48 <=1 
C1020: x38+x49-y38_49 <=1 
C1021: x38+x50 <=1 
C1022: x38+x51-y38_51 <=1 
C1023: x38+x54-y38_54 <=1 
C1024: x38+x55-y38_55 <=1 
C1025: x38+x59 <=1 
C1026: x38+x60-y38_60 <=1 
C1027: x39+x40 <=1 
C1028: x39+x41 <=1 
C1029: x39+x42 <=1 
C1030: x39+x46-y39_46 <=1 
C1031: x39+x48 <=1 
C1032: x39+x49 <=1 
C1033: x39+x50-y39_50 <=1 
C1034: x39+x52-y39_52 <=1 
C1035: x39+x53-y39_53 <=1 
C1036: x39+x54-y39_54 <=1 
C1037: x39+x56 <=1 
C1038: x39+x57 <=1 
C1039: x39+x58 <=1 
C1040: x39+x60 <=1 
C1041: x39+x61 <=1 
C1042: x39+x63-y39_63 <=1 
C1043: x40+x41-y40_41 <=1 
C1044: x40+x43-y40_43 <=1 
C1045: x40+x45-y40_45 <=1 
C1046: x40+x46 <=1 
C1047: x40+x47 <=1 
C1048: x40+x50-y40_50 <=1 
C1049: x40+x51-y40_51 <=1 
C1050: x40+x53 <=1 
C1051: x40+x54 <=1 
C1052: x40+x55-y40_55 <=1 
C1053: x40+x57-y40_57 <=1 
C1054: x40+x60-y40_60 <=1 
C1055: x40+x62 <=1 
C1056: x40+x63-y40_63 <=1 
C1057: x41+x42-y41_42 <=1 
C1058: x41+x43-y41_43 <=1 
C1059: x41+x45-y41_45 <=1 
C1060: x41+x46 <=1 
C1061: x41+x47-y41_47 <=1 
C1062: x41+x50-y41_50 <=1 
C1063: x41+x52-y41_52 <=1 
C1064: x41+x54 <=1 
C1065: x41+x55-y41_55 <=1 
C1066: x41+x56-y41_56 <=1 
C1067: x41+x58-y41_58 <=1 
C1068: x41+x59 <=1 
C1069: x41+x60 <=1 
C1070: x41+x61 <=1 
C1071: x41+x63-y41_63 <=1 
C1072: x42+x43-y42_43 <=1 
C1073: x42+x44 <=1 
C1074: x42+x45-y42_45 <=1 
C1075: x42+x46 <=1 
C1076: x42+x47 <=1 
C1077: x42+x51-y42_51 <=1 
C1078: x42+x52-y42_52 <=1 
C1079: x42+x56 <=1 
C1080: x42+x57 <=1 
C1081: x42+x58-y42_58 <=1 
C1082: x42+x60 <=1 
C1083: x42+x62-y42_62 <=1 
C1084: x43+x44 <=1 
C1085: x43+x46 <=1 
C1086: x43+x47 <=1 
C1087: x43+x48-y43_48 <=1 
C1088: x43+x52-y43_52 <=1 
C1089: x43+x53 <=1 
C1090: x43+x55-y43_55 <=1 
C1091: x43+x57 <=1 
C1092: x43+x59-y43_59 <=1 
C1093: x43+x62 <=1 
C1094: x43+x63-y43_63 <=1 
C1095: x44+x45 <=1 
C1096: x44+x47 <=1 
C1097: x44+x48 <=1 
C1098: x44+x49-y44_49 <=1 
C1099: x44+x50 <=1 
C1100: x44+x51 <=1 
C1101: x44+x53-y44_53 <=1 
C1102: x44+x56 <=1 
C1103: x44+x57 <=1 
C1104: x44+x58 <=1 
C1105: x44+x59-y44_59 <=1 
C1106: x44+x60-y44_60 <=1 
C1107: x44+x61 <=1 
C1108: x44+x62 <=1 
C1109: x44+x63 <=1 
C1110: x45+x46-y45_46 <=1 
C1111: x45+x48 <=1 
C1112: x45+x49 <=1 
C1113: x45+x52 <=1 
C1114: x45+x55 <=1 
C1115: x45+x56 <=1 
C1116: x45+x57 <=1 
C1117: x45+x58 <=1 
C1118: x45+x60-y45_60 <=1 
C1119: x45+x61 <=1 
C1120: x45+x62 <=1 
C1121: x45+x63 <=1 
C1122: x46+x47-y46_47 <=1 
C1123: x46+x49-y46_49 <=1 
C1124: x46+x50-y46_50 <=1 
C1125: x46+x51-y46_51 <=1 
C1126: x46+x53 <=1 
C1127: x46+x55-y46_55 <=1 
C1128: x46+x57-y46_57 <=1 
C1129: x46+x58-y46_58 <=1 
C1130: x46+x61-y46_61 <=1 
C1131: x46+x62 <=1 
C1132: x46+x63 <=1 
C1133: x47+x48-y47_48 <=1 
C1134: x47+x49 <=1 
C1135: x47+x51 <=1 
C1136: x47+x52-y47_52 <=1 
C1137: x47+x57-y47_57 <=1 
C1138: x47+x62 <=1 
C1139: x47+x63-y47_63 <=1 
C1140: x48+x50 <=1 
C1141: x48+x52-y48_52 <=1 
C1142: x48+x54 <=1 
C1143: x48+x56 <=1 
C1144: x48+x58-y48_58 <=1 
C1145: x48+x59-y48_59 <=1 
C1146: x48+x60 <=1 
C1147: x48+x62-y48_62 <=1 
C1148: x48+x63-y48_63 <=1 
C1149: x49+x50 <=1 
C1150: x49+x51 <=1 
C1151: x49+x53-y49_53 <=1 
C1152: x49+x56-y49_56 <=1 
C1153: x49+x57-y49_57 <=1 
C1154: x49+x58-y49_58 <=1 
C1155: x49+x59 <=1 
C1156: x49+x60 <=1 
C1157: x49+x61 <=1 
C1158: x49+x62 <=1 
C1159: x49+x63-y49_63 <=1 
C1160: x50+x51 <=1 
C1161: x50+x54 <=1 
C1162: x50+x55-y50_55 <=1 
C1163: x50+x59-y50_59 <=1 
C1164: x50+x60-y50_60 <=1 
C1165: x50+x62 <=1 
C1166: x51+x52 <=1 
C1167: x51+x53 <=1 
C1168: x51+x55 <=1 
C1169: x51+x56 <=1 
C1170: x51+x58-y51_58 <=1 
C1171: x51+x59-y51_59 <=1 
C1172: x51+x60 <=1 
C1173: x51+x61 <=1 
C1174: x51+x62 <=1 
C1175: x51+x63-y51_63 <=1 
C1176: x52+x54-y52_54 <=1 
C1177: x52+x55-y52_55 <=1 
C1178: x52+x56 <=1 
C1179: x52+x57 <=1 
C1180: x52+x60 <=1 
C1181: x52+x62 <=1 
C1182: x52+x63-y52_63 <=1 
C1183: x53+x54 <=1 
C1184: x53+x55 <=1 
C1185: x53+x56-y53_56 <=1 
C1186: x53+x58 <=1 
C1187: x53+x59 <=1 
C1188: x53+x62 <=1 
C1189: x54+x55 <=1 
C1190: x54+x59-y54_59 <=1 
C1191: x54+x62 <=1 
C1192: x54+x63-y54_63 <=1 
C1193: x55+x56-y55_56 <=1 
C1194: x55+x57 <=1 
C1195: x55+x59 <=1 
C1196: x55+x60 <=1 
C1197: x55+x61-y55_61 <=1 
C1198: x55+x62-y55_62 <=1 
C1199: x56+x57-y56_57 <=1 
C1200: x56+x58-y56_58 <=1 
C1201: x56+x60 <=1 
C1202: x56+x62-y56_62 <=1 
C1203: x56+x63-y56_63 <=1 
C1204: x57+x58 <=1 
C1205: x57+x59-y57_59 <=1 
C1206: x57+x61-y57_61 <=1 
C1207: x58+x59-y58_59 <=1 
C1208: x58+x61 <=1 
C1209: x58+x62-y58_62 <=1 
C1210: x59+x61 <=1 
C1211: x59+x62 <=1 
C1212: x60+x62 <=1 
C1213: x61+x62-y61_62 <=1 
C1214: x62+x63-y62_63 <=1 

binary
x0
x1
x2
x3
x4
x5
x6
x7
x8
x9
x10
x11
x12
x13
x14
x15
x16
x17
x18
x19
x20
x21
x22
x23
x24
x25
x26
x27
x28
x29
x30
x31
x32
x33
x34
x35
x36
x37
x38
x39
x40
x41
x42
x43
x44
x45
x46
x47
x48
x49
x50
x51
x52
x53
x54
x55
x56
x57
x58
x59
x60
x61
x62
x63
