problem_generation/data/GISP/train/er_n=64_m=1214_p=0.60_SET2_setparam=100.00_alpha=0.50_431.sol
objective value:                                 1172
x20                                                 1 	(obj:100)
x21                                                 1 	(obj:100)
x22                                                 1 	(obj:100)
x23                                                 1 	(obj:100)
x24                                                 1 	(obj:100)
x26                                                 1 	(obj:100)
x38                                                 1 	(obj:100)
x46                                                 1 	(obj:100)
x49                                                 1 	(obj:100)
x52                                                 1 	(obj:100)
x55                                                 1 	(obj:100)
x58                                                 1 	(obj:100)
y21_46                                              1 	(obj:-1)
y24_55                                              1 	(obj:-1)
y21_49                                              1 	(obj:-1)
y23_58                                              1 	(obj:-1)
y20_52                                              1 	(obj:-1)
y46_55                                              1 	(obj:-1)
y20_38                                              1 	(obj:-1)
y24_26                                              1 	(obj:-1)
y38_46                                              1 	(obj:-1)
y38_55                                              1 	(obj:-1)
y46_49                                              1 	(obj:-1)
y46_58                                              1 	(obj:-1)
y26_52                                              1 	(obj:-1)
y20_23                                              1 	(obj:-1)
y52_55                                              1 	(obj:-1)
y26_38                                              1 	(obj:-1)
y38_49                                              1 	(obj:-1)
y22_58                                              1 	(obj:-1)
y24_58                                              1 	(obj:-1)
y21_38                                              1 	(obj:-1)
y20_46                                              1 	(obj:-1)
y24_52                                              1 	(obj:-1)
y49_58                                              1 	(obj:-1)
y20_22                                              1 	(obj:-1)
y20_49                                              1 	(obj:-1)
y23_26                                              1 	(obj:-1)
y22_52                                              1 	(obj:-1)
y22_38                                              1 	(obj:-1)
